/* Objective function */
min: +C1 +C2 +C3 +C4 +C5 +C6 +C7 +C8 +C9 +C10 +C11 +C12 +C13 +C14 +C15 +C16 +C17 +C18 +C19 +C20 +C21 +C22
 +C23 +C24 +C25 +C26 +C27 +C28 +C29 +C30 +C31 +C32 +C33 +C34 +C35 +C36 +C37 +C38 +C39 +C40 +C41 +C42
 +C43 +C44 +C45 +C46 +C47 +C48 +C49 +C50 +C51 +C52 +C53 +C54 +C55 +C56 +C57 +C58 +C59 +C60 +C61 +C62
 +C63 +C64 +C65 +C66 +C67 +C68 +C69 +C70 +C71 +C72 +C73 +C74 +C75 +C76 +C77 +C78 +C79 +C80 +C81 +C82
 +C83 +C84 +C85 +C86 +C87 +C88 +C89 +C90 +C91 +C92 +C93 +C94 +C95 +C96 +C97 +C98 +C99 +C100 +C101 +C102
 +C103 +C104 +C105 +C106 +C107 +C108 +C109 +C110 +C111 +C112 +C113 +C114 +C115 +C116 +C117 +C118 +C119
 +C120 +C121 +C122 +C123 +C124 +C125 +C126 +C127 +C128 +C129 +C130 +C131 +C132 +C133 +C134 +C135 +C136
 +C137 +C138 +C139 +C140 +C141 +C142 +C143 +C144 +C145 +C146 +C147 +C148 +C149 +C150 +C151 +C152 +C153
 +C154 +C155 +C156 +C157 +C158 +C159 +C160 +C161 +C162 +C163 +C164 +C165 +C166 +C167 +C168 +C169 +C170
 +C171 +C172 +C173 +C174 +C175 +C176 +C177 +C178 +C179 +C180 +C181 +C182 +C183 +C184 +C185 +C186 +C187
 +C188 +C189 +C190 +C191 +C192 +C193 +C194 +C195 +C196 +C197 +C198 +C199 +C200 +C201 +C202 +C203 +C204
 +C205 +C206 +C207 +C208 +C209 +C210 +C211 +C212 +C213 +C214 +C215 +C216 +C217 +C218 +C219 +C220 +C221
 +C222 +C223 +C224 +C225 +C226 +C227 +C228 +C229 +C230 +C231 +C232 +C233 +C234 +C235 +C236 +C237 +C238
 +C239 +C240 +C241 +C242 +C243 +C244 +C245 +C246 +C247 +C248 +C249 +C250 +C251 +C252 +C253 +C254 +C255
 +C256 +C257 +C258 +C259 +C260 +C261 +C262 +C263 +C264 +C265 +C266 +C267 +C268 +C269 +C270 +C271 +C272
 +C273 +C274 +C275 +C276 +C277 +C278 +C279 +C280 +C281 +C282 +C283 +C284 +C285 +C286 +C287 +C288 +C289
 +C290 +C291 +C292 +C293 +C294 +C295 +C296 +C297 +C298 +C299 +C300 +C301 +C302 +C303 +C304 +C305 +C306
 +C307 +C308 +C309 +C310 +C311 +C312 +C313 +C314 +C315 +C316 +C317 +C318 +C319 +C320 +C321 +C322 +C323
 +C324 +C325 +C326 +C327 +C328 +C329 +C330 +C331 +C332 +C333 +C334 +C335 +C336 +C337 +C338 +C339 +C340
 +C341 +C342 +C343 +C344 +C345 +C346 +C347 +C348 +C349 +C350 +C351 +C352 +C353 +C354 +C355 +C356 +C357
 +C358 +C359 +C360 +C361 +C362 +C363 +C364 +C365 +C366 +C367 +C368 +C369 +C370 +C371 +C372 +C373 +C374
 +C375 +C376 +C377 +C378 +C379 +C380 +C381 +C382 +C383 +C384 +C385 +C386 +C387 +C388 +C389 +C390 +C391
 +C392 +C393 +C394 +C395 +C396 +C397 +C398 +C399 +C400 +C401 +C402 +C403 +C404 +C405 +C406 +C407 +C408
 +C409 +C410 +C411 +C412 +C413 +C414 +C415 +C416 +C417 +C418 +C419 +C420 +C421 +C422 +C423 +C424 +C425
 +C426 +C427 +C428 +C429 +C430 +C431 +C432 +C433 +C434 +C435 +C436 +C437 +C438 +C439 +C440 +C441 +C442
 +C443 +C444 +C445 +C446 +C447 +C448 +C449 +C450 +C451 +C452 +C453 +C454 +C455 +C456 +C457 +C458 +C459
 +C460 +C461 +C462 +C463 +C464 +C465 +C466 +C467 +C468 +C469 +C470 +C471 +C472 +C473 +C474 +C475 +C476
 +C477 +C478 +C479 +C480;

/* Constraints */
+C1 +C2 = 2;
+C1 +C12 +C17 = 2;
-C2 +C12 +C14 -C23 = 0;
+C17 +C19 +C20 -C24 -C29 = 0;
-C14 -C19 +C23 +C24 +C25 -C30 = 0;
-C20 -C25 +C29 +C30 = 0;
+C31 +C32 = 2;
-C31 +C37 +C38 -C47 = 0;
+C32 +C37 +C53 = 2;
-C38 +C47 +C49 +C50 -C54 -C59 = 0;
-C49 +C53 +C54 +C55 -C60 = 0;
-C50 -C55 +C59 +C60 = 0;
+C61 +C62 = 2;
-C61 +C67 +C68 -C72 = 0;
-C62 -C67 +C72 +C74 -C83 = 0;
+C68 +C84 +C89 = 2;
-C74 +C83 +C84 +C85 -C90 = 0;
-C85 +C89 +C90 = 0;
+C91 +C92 = 2;
-C91 +C97 +C98 -C102 -C107 = 0;
-C92 -C97 +C102 +C104 = 0;
-C98 +C107 +C109 +C110 -C119 = 0;
+C104 +C109 +C120 = 2;
-C110 +C119 +C120 = 0;
+C121 +C122 = 2;
-C121 +C127 +C128 -C132 -C137 = 0;
-C122 -C127 +C132 +C134 -C143 = 0;
-C128 +C137 +C139 +C140 -C144 = 0;
-C134 -C139 +C143 +C144 +C145 = 0;
+C140 +C145 = 2;
+C152 -C156 = 0;
+C156 +C157 +C158 = 2;
+C152 +C157 +C173 = 2;
-C158 +C169 +C170 -C174 -C179 = 0;
-C169 +C173 +C174 +C175 -C180 = 0;
-C170 -C175 +C179 +C180 = 0;
+C182 -C186 -C191 = 0;
+C186 +C187 +C188 = 2;
-C182 -C187 +C191 +C194 -C203 = 0;
+C188 +C204 +C209 = 2;
-C194 +C203 +C204 +C205 -C210 = 0;
-C205 +C209 +C210 = 0;
+C212 -C216 -C221 = 0;
+C216 +C217 +C218 = 2;
-C212 -C217 +C221 +C224 = 0;
-C218 +C229 +C230 -C239 = 0;
+C224 +C229 +C240 = 2;
-C230 +C239 +C240 = 0;
+C242 -C246 -C251 = 0;
+C246 +C247 +C248 = 2;
-C242 -C247 +C251 +C254 -C263 = 0;
-C248 +C259 +C260 -C264 = 0;
-C254 -C259 +C263 +C264 +C265 = 0;
+C260 +C265 = 2;
+C271 -C276 -C281 = 0;
-C271 +C276 +C278 -C282 = 0;
+C281 +C282 +C284 = 2;
+C278 +C294 +C299 = 2;
-C284 +C294 +C295 -C300 = 0;
-C295 +C299 +C300 = 0;
+C301 -C306 -C311 = 0;
-C301 +C306 +C308 -C312 -C317 = 0;
+C311 +C312 +C314 = 2;
-C308 +C317 +C319 +C320 -C329 = 0;
+C314 +C319 +C330 = 2;
-C320 +C329 +C330 = 0;
+C331 -C336 -C341 = 0;
-C331 +C336 +C338 -C342 -C347 = 0;
+C341 +C342 +C344 = 2;
-C338 +C347 +C349 +C350 -C354 = 0;
-C344 -C349 +C354 +C355 = 0;
+C350 +C355 = 2;
+C361 +C362 -C366 -C371 = 0;
-C361 +C366 +C367 -C372 -C377 = 0;
-C362 -C367 +C371 +C372 +C374 = 0;
+C377 +C379 +C380 = 2;
+C374 +C379 +C390 = 2;
-C380 +C390 = 0;
+C391 +C392 -C396 -C401 = 0;
-C391 +C396 +C397 -C402 -C407 = 0;
-C392 -C397 +C401 +C402 +C404 -C413 = 0;
+C407 +C409 +C410 = 2;
-C404 -C409 +C413 +C415 = 0;
+C410 +C415 = 2;
+C421 +C422 -C426 -C431 = 0;
-C421 +C426 +C427 +C428 -C432 -C437 = 0;
-C422 -C427 +C431 +C432 -C443 = 0;
-C428 +C437 +C440 -C444 = 0;
+C443 +C444 +C445 = 2;
+C440 +C445 = 2;
+425 C1 +425 C6 +425 C31 +425 C36 +375 C61 +375 C66 +25 C91 +25 C96 +325 C121 +325 C126 +800 C151 +800 C156
 +175 C181 +175 C186 +375 C211 +375 C216 +2850 C241 +2850 C246 +275 C271 +275 C276 +1150 C301 +1150 C306
 +25 C331 +25 C336 +275 C361 +275 C366 +175 C391 +175 C396 +2325 C421 +2325 C426 -100 C451 <= 0;
+425 C2 +425 C11 +425 C32 +425 C41 +375 C62 +375 C71 +25 C92 +25 C101 +325 C122 +325 C131 +800 C152 +800 C161
 +175 C182 +175 C191 +375 C212 +375 C221 +2850 C242 +2850 C251 +275 C272 +275 C281 +1150 C302 +1150 C311
 +25 C332 +25 C341 +275 C362 +275 C371 +175 C392 +175 C401 +2325 C422 +2325 C431 -100 C452 <= 0;
+425 C3 +425 C16 +425 C33 +425 C46 +375 C63 +375 C76 +25 C93 +25 C106 +325 C123 +325 C136 +800 C153 +800 C166
 +175 C183 +175 C196 +375 C213 +375 C226 +2850 C243 +2850 C256 +275 C273 +275 C286 +1150 C303 +1150 C316
 +25 C333 +25 C346 +275 C363 +275 C376 +175 C393 +175 C406 +2325 C423 +2325 C436 <= 0;
+425 C4 +425 C21 +425 C34 +425 C51 +375 C64 +375 C81 +25 C94 +25 C111 +325 C124 +325 C141 +800 C154 +800 C171
 +175 C184 +175 C201 +375 C214 +375 C231 +2850 C244 +2850 C261 +275 C274 +275 C291 +1150 C304 +1150 C321
 +25 C334 +25 C351 +275 C364 +275 C381 +175 C394 +175 C411 +2325 C424 +2325 C441 <= 0;
+425 C5 +425 C26 +425 C35 +425 C56 +375 C65 +375 C86 +25 C95 +25 C116 +325 C125 +325 C146 +800 C155 +800 C176
 +175 C185 +175 C206 +375 C215 +375 C236 +2850 C245 +2850 C266 +275 C275 +275 C296 +1150 C305 +1150 C326
 +25 C335 +25 C356 +275 C365 +275 C386 +175 C395 +175 C416 +2325 C425 +2325 C446 <= 0;
+425 C7 +425 C12 +425 C37 +425 C42 +375 C67 +375 C72 +25 C97 +25 C102 +325 C127 +325 C132 +800 C157 +800 C162
 +175 C187 +175 C192 +375 C217 +375 C222 +2850 C247 +2850 C252 +275 C277 +275 C282 +1150 C307 +1150 C312
 +25 C337 +25 C342 +275 C367 +275 C372 +175 C397 +175 C402 +2325 C427 +2325 C432 -100 C456 <= 0;
+425 C8 +425 C17 +425 C38 +425 C47 +375 C68 +375 C77 +25 C98 +25 C107 +325 C128 +325 C137 +800 C158 +800 C167
 +175 C188 +175 C197 +375 C218 +375 C227 +2850 C248 +2850 C257 +275 C278 +275 C287 +1150 C308 +1150 C317
 +25 C338 +25 C347 +275 C368 +275 C377 +175 C398 +175 C407 +2325 C428 +2325 C437 -100 C457 <= 0;
+425 C9 +425 C22 +425 C39 +425 C52 +375 C69 +375 C82 +25 C99 +25 C112 +325 C129 +325 C142 +800 C159 +800 C172
 +175 C189 +175 C202 +375 C219 +375 C232 +2850 C249 +2850 C262 +275 C279 +275 C292 +1150 C309 +1150 C322
 +25 C339 +25 C352 +275 C369 +275 C382 +175 C399 +175 C412 +2325 C429 +2325 C442 <= 0;
+425 C10 +425 C27 +425 C40 +425 C57 +375 C70 +375 C87 +25 C100 +25 C117 +325 C130 +325 C147 +800 C160
 +800 C177 +175 C190 +175 C207 +375 C220 +375 C237 +2850 C250 +2850 C267 +275 C280 +275 C297 +1150 C310
 +1150 C327 +25 C340 +25 C357 +275 C370 +275 C387 +175 C400 +175 C417 +2325 C430 +2325 C447 <= 0;
+425 C13 +425 C18 +425 C43 +425 C48 +375 C73 +375 C78 +25 C103 +25 C108 +325 C133 +325 C138 +800 C163
 +800 C168 +175 C193 +175 C198 +375 C223 +375 C228 +2850 C253 +2850 C258 +275 C283 +275 C288 +1150 C313
 +1150 C318 +25 C343 +25 C348 +275 C373 +275 C378 +175 C403 +175 C408 +2325 C433 +2325 C438 <= 0;
+425 C14 +425 C23 +425 C44 +425 C53 +375 C74 +375 C83 +25 C104 +25 C113 +325 C134 +325 C143 +800 C164
 +800 C173 +175 C194 +175 C203 +375 C224 +375 C233 +2850 C254 +2850 C263 +275 C284 +275 C293 +1150 C314
 +1150 C323 +25 C344 +25 C353 +275 C374 +275 C383 +175 C404 +175 C413 +2325 C434 +2325 C443 -100 C461 <= 0;
+425 C15 +425 C28 +425 C45 +425 C58 +375 C75 +375 C88 +25 C105 +25 C118 +325 C135 +325 C148 +800 C165
 +800 C178 +175 C195 +175 C208 +375 C225 +375 C238 +2850 C255 +2850 C268 +275 C285 +275 C298 +1150 C315
 +1150 C328 +25 C345 +25 C358 +275 C375 +275 C388 +175 C405 +175 C418 +2325 C435 +2325 C448 <= 0;
+425 C19 +425 C24 +425 C49 +425 C54 +375 C79 +375 C84 +25 C109 +25 C114 +325 C139 +325 C144 +800 C169
 +800 C174 +175 C199 +175 C204 +375 C229 +375 C234 +2850 C259 +2850 C264 +275 C289 +275 C294 +1150 C319
 +1150 C324 +25 C349 +25 C354 +275 C379 +275 C384 +175 C409 +175 C414 +2325 C439 +2325 C444 -100 C463 <= 0;
+425 C20 +425 C29 +425 C50 +425 C59 +375 C80 +375 C89 +25 C110 +25 C119 +325 C140 +325 C149 +800 C170
 +800 C179 +175 C200 +175 C209 +375 C230 +375 C239 +2850 C260 +2850 C269 +275 C290 +275 C299 +1150 C320
 +1150 C329 +25 C350 +25 C359 +275 C380 +275 C389 +175 C410 +175 C419 +2325 C440 +2325 C449 -100 C464 <= 0;
+425 C25 +425 C30 +425 C55 +425 C60 +375 C85 +375 C90 +25 C115 +25 C120 +325 C145 +325 C150 +800 C175
 +800 C180 +175 C205 +175 C210 +375 C235 +375 C240 +2850 C265 +2850 C270 +275 C295 +275 C300 +1150 C325
 +1150 C330 +25 C355 +25 C360 +275 C385 +275 C390 +175 C415 +175 C420 +2325 C445 +2325 C450 -100 C465 <= 0;
+C451 +C466 <= 100;
+C452 +C467 <= 100;
+C453 +C468 <= 100;
+C454 +C469 <= 100;
+C455 +C470 <= 100;
+C456 +C471 <= 100;
+C457 +C472 <= 100;
+C458 +C473 <= 100;
+C459 +C474 <= 100;
+C460 +C475 <= 100;
+C461 +C476 <= 100;
+C462 +C477 <= 100;
+C463 +C478 <= 100;
+C464 +C479 <= 100;
+C465 +C480 <= 100;

/* Variable bounds */
C1 <= 1;
C2 <= 1;
C3 <= 1;
C4 <= 1;
C5 <= 1;
C6 <= 1;
C7 <= 1;
C8 <= 1;
C9 <= 1;
C10 <= 1;
C11 <= 1;
C12 <= 1;
C13 <= 1;
C14 <= 1;
C15 <= 1;
C16 <= 1;
C17 <= 1;
C18 <= 1;
C19 <= 1;
C20 <= 1;
C21 <= 1;
C22 <= 1;
C23 <= 1;
C24 <= 1;
C25 <= 1;
C26 <= 1;
C27 <= 1;
C28 <= 1;
C29 <= 1;
C30 <= 1;
C31 <= 1;
C32 <= 1;
C33 <= 1;
C34 <= 1;
C35 <= 1;
C36 <= 1;
C37 <= 1;
C38 <= 1;
C39 <= 1;
C40 <= 1;
C41 <= 1;
C42 <= 1;
C43 <= 1;
C44 <= 1;
C45 <= 1;
C46 <= 1;
C47 <= 1;
C48 <= 1;
C49 <= 1;
C50 <= 1;
C51 <= 1;
C52 <= 1;
C53 <= 1;
C54 <= 1;
C55 <= 1;
C56 <= 1;
C57 <= 1;
C58 <= 1;
C59 <= 1;
C60 <= 1;
C61 <= 1;
C62 <= 1;
C63 <= 1;
C64 <= 1;
C65 <= 1;
C66 <= 1;
C67 <= 1;
C68 <= 1;
C69 <= 1;
C70 <= 1;
C71 <= 1;
C72 <= 1;
C73 <= 1;
C74 <= 1;
C75 <= 1;
C76 <= 1;
C77 <= 1;
C78 <= 1;
C79 <= 1;
C80 <= 1;
C81 <= 1;
C82 <= 1;
C83 <= 1;
C84 <= 1;
C85 <= 1;
C86 <= 1;
C87 <= 1;
C88 <= 1;
C89 <= 1;
C90 <= 1;
C91 <= 1;
C92 <= 1;
C93 <= 1;
C94 <= 1;
C95 <= 1;
C96 <= 1;
C97 <= 1;
C98 <= 1;
C99 <= 1;
C100 <= 1;
C101 <= 1;
C102 <= 1;
C103 <= 1;
C104 <= 1;
C105 <= 1;
C106 <= 1;
C107 <= 1;
C108 <= 1;
C109 <= 1;
C110 <= 1;
C111 <= 1;
C112 <= 1;
C113 <= 1;
C114 <= 1;
C115 <= 1;
C116 <= 1;
C117 <= 1;
C118 <= 1;
C119 <= 1;
C120 <= 1;
C121 <= 1;
C122 <= 1;
C123 <= 1;
C124 <= 1;
C125 <= 1;
C126 <= 1;
C127 <= 1;
C128 <= 1;
C129 <= 1;
C130 <= 1;
C131 <= 1;
C132 <= 1;
C133 <= 1;
C134 <= 1;
C135 <= 1;
C136 <= 1;
C137 <= 1;
C138 <= 1;
C139 <= 1;
C140 <= 1;
C141 <= 1;
C142 <= 1;
C143 <= 1;
C144 <= 1;
C145 <= 1;
C146 <= 1;
C147 <= 1;
C148 <= 1;
C149 <= 1;
C150 <= 1;
C151 <= 1;
C152 <= 1;
C153 <= 1;
C154 <= 1;
C155 <= 1;
C156 <= 1;
C157 <= 1;
C158 <= 1;
C159 <= 1;
C160 <= 1;
C161 <= 1;
C162 <= 1;
C163 <= 1;
C164 <= 1;
C165 <= 1;
C166 <= 1;
C167 <= 1;
C168 <= 1;
C169 <= 1;
C170 <= 1;
C171 <= 1;
C172 <= 1;
C173 <= 1;
C174 <= 1;
C175 <= 1;
C176 <= 1;
C177 <= 1;
C178 <= 1;
C179 <= 1;
C180 <= 1;
C181 <= 1;
C182 <= 1;
C183 <= 1;
C184 <= 1;
C185 <= 1;
C186 <= 1;
C187 <= 1;
C188 <= 1;
C189 <= 1;
C190 <= 1;
C191 <= 1;
C192 <= 1;
C193 <= 1;
C194 <= 1;
C195 <= 1;
C196 <= 1;
C197 <= 1;
C198 <= 1;
C199 <= 1;
C200 <= 1;
C201 <= 1;
C202 <= 1;
C203 <= 1;
C204 <= 1;
C205 <= 1;
C206 <= 1;
C207 <= 1;
C208 <= 1;
C209 <= 1;
C210 <= 1;
C211 <= 1;
C212 <= 1;
C213 <= 1;
C214 <= 1;
C215 <= 1;
C216 <= 1;
C217 <= 1;
C218 <= 1;
C219 <= 1;
C220 <= 1;
C221 <= 1;
C222 <= 1;
C223 <= 1;
C224 <= 1;
C225 <= 1;
C226 <= 1;
C227 <= 1;
C228 <= 1;
C229 <= 1;
C230 <= 1;
C231 <= 1;
C232 <= 1;
C233 <= 1;
C234 <= 1;
C235 <= 1;
C236 <= 1;
C237 <= 1;
C238 <= 1;
C239 <= 1;
C240 <= 1;
C241 <= 1;
C242 <= 1;
C243 <= 1;
C244 <= 1;
C245 <= 1;
C246 <= 1;
C247 <= 1;
C248 <= 1;
C249 <= 1;
C250 <= 1;
C251 <= 1;
C252 <= 1;
C253 <= 1;
C254 <= 1;
C255 <= 1;
C256 <= 1;
C257 <= 1;
C258 <= 1;
C259 <= 1;
C260 <= 1;
C261 <= 1;
C262 <= 1;
C263 <= 1;
C264 <= 1;
C265 <= 1;
C266 <= 1;
C267 <= 1;
C268 <= 1;
C269 <= 1;
C270 <= 1;
C271 <= 1;
C272 <= 1;
C273 <= 1;
C274 <= 1;
C275 <= 1;
C276 <= 1;
C277 <= 1;
C278 <= 1;
C279 <= 1;
C280 <= 1;
C281 <= 1;
C282 <= 1;
C283 <= 1;
C284 <= 1;
C285 <= 1;
C286 <= 1;
C287 <= 1;
C288 <= 1;
C289 <= 1;
C290 <= 1;
C291 <= 1;
C292 <= 1;
C293 <= 1;
C294 <= 1;
C295 <= 1;
C296 <= 1;
C297 <= 1;
C298 <= 1;
C299 <= 1;
C300 <= 1;
C301 <= 1;
C302 <= 1;
C303 <= 1;
C304 <= 1;
C305 <= 1;
C306 <= 1;
C307 <= 1;
C308 <= 1;
C309 <= 1;
C310 <= 1;
C311 <= 1;
C312 <= 1;
C313 <= 1;
C314 <= 1;
C315 <= 1;
C316 <= 1;
C317 <= 1;
C318 <= 1;
C319 <= 1;
C320 <= 1;
C321 <= 1;
C322 <= 1;
C323 <= 1;
C324 <= 1;
C325 <= 1;
C326 <= 1;
C327 <= 1;
C328 <= 1;
C329 <= 1;
C330 <= 1;
C331 <= 1;
C332 <= 1;
C333 <= 1;
C334 <= 1;
C335 <= 1;
C336 <= 1;
C337 <= 1;
C338 <= 1;
C339 <= 1;
C340 <= 1;
C341 <= 1;
C342 <= 1;
C343 <= 1;
C344 <= 1;
C345 <= 1;
C346 <= 1;
C347 <= 1;
C348 <= 1;
C349 <= 1;
C350 <= 1;
C351 <= 1;
C352 <= 1;
C353 <= 1;
C354 <= 1;
C355 <= 1;
C356 <= 1;
C357 <= 1;
C358 <= 1;
C359 <= 1;
C360 <= 1;
C361 <= 1;
C362 <= 1;
C363 <= 1;
C364 <= 1;
C365 <= 1;
C366 <= 1;
C367 <= 1;
C368 <= 1;
C369 <= 1;
C370 <= 1;
C371 <= 1;
C372 <= 1;
C373 <= 1;
C374 <= 1;
C375 <= 1;
C376 <= 1;
C377 <= 1;
C378 <= 1;
C379 <= 1;
C380 <= 1;
C381 <= 1;
C382 <= 1;
C383 <= 1;
C384 <= 1;
C385 <= 1;
C386 <= 1;
C387 <= 1;
C388 <= 1;
C389 <= 1;
C390 <= 1;
C391 <= 1;
C392 <= 1;
C393 <= 1;
C394 <= 1;
C395 <= 1;
C396 <= 1;
C397 <= 1;
C398 <= 1;
C399 <= 1;
C400 <= 1;
C401 <= 1;
C402 <= 1;
C403 <= 1;
C404 <= 1;
C405 <= 1;
C406 <= 1;
C407 <= 1;
C408 <= 1;
C409 <= 1;
C410 <= 1;
C411 <= 1;
C412 <= 1;
C413 <= 1;
C414 <= 1;
C415 <= 1;
C416 <= 1;
C417 <= 1;
C418 <= 1;
C419 <= 1;
C420 <= 1;
C421 <= 1;
C422 <= 1;
C423 <= 1;
C424 <= 1;
C425 <= 1;
C426 <= 1;
C427 <= 1;
C428 <= 1;
C429 <= 1;
C430 <= 1;
C431 <= 1;
C432 <= 1;
C433 <= 1;
C434 <= 1;
C435 <= 1;
C436 <= 1;
C437 <= 1;
C438 <= 1;
C439 <= 1;
C440 <= 1;
C441 <= 1;
C442 <= 1;
C443 <= 1;
C444 <= 1;
C445 <= 1;
C446 <= 1;
C447 <= 1;
C448 <= 1;
C449 <= 1;
C450 <= 1;
C466 <= 1;
C467 <= 1;
C468 <= 1;
C469 <= 1;
C470 <= 1;
C471 <= 1;
C472 <= 1;
C473 <= 1;
C474 <= 1;
C475 <= 1;
C476 <= 1;
C477 <= 1;
C478 <= 1;
C479 <= 1;
C480 <= 1;

/* Integer definitions */
int C1,C2,C3,C4,C5,C6,C7,C8,C9,C10,C11,C12,C13,C14,C15,C16,C17,C18,C19,C20,C21,C22,C23,C24,C25,C26,C27,C28,C29,C30,C31,C32,C33,C34,C35,C36,C37,C38,C39,C40,C41,C42,C43,C44,C45,C46,C47,C48,C49,C50,C51,C52,C53,C54,C55,C56,C57,C58,C59,C60,C61,C62,C63,C64,C65,C66,C67,C68,C69,C70,C71,C72,C73,C74,C75,C76,C77,C78,C79,C80,C81,C82,C83,C84,C85,C86,C87,C88,C89,C90,C91,C92,C93,C94,C95,C96,C97,C98,C99,C100,C101,C102,C103,C104,C105,C106,C107,C108,C109,C110,C111,C112,C113,C114,C115,C116,C117,C118,C119,C120,C121,C122,C123,C124,C125,C126,C127,C128,C129,C130,C131,C132,C133,C134,C135,C136,C137,C138,C139,C140,C141,C142,C143,C144,C145,C146,C147,C148,C149,C150,C151,C152,C153,C154,C155,C156,C157,C158,C159,C160,C161,C162,C163,C164,C165,C166,C167,C168,C169,C170,C171,C172,C173,C174,C175,C176,C177,C178,C179,C180,C181,C182,C183,C184,C185,C186,C187,C188,C189,C190,C191,C192,C193,C194,C195,C196,C197,C198,C199,C200,C201,C202,C203,C204,C205,C206,C207,C208,C209,C210,C211,C212,C213,C214,C215,C216,C217,C218,C219,C220,C221,C222,C223,C224,C225,C226,C227,C228,C229,C230,C231,C232,C233,C234,C235,C236,C237,C238,C239,C240,C241,C242,C243,C244,C245,C246,C247,C248,C249,C250,C251,C252,C253,C254,C255,C256,C257,C258,C259,C260,C261,C262,C263,C264,C265,C266,C267,C268,C269,C270,C271,C272,C273,C274,C275,C276,C277,C278,C279,C280,C281,C282,C283,C284,C285,C286,C287,C288,C289,C290,C291,C292,C293,C294,C295,C296,C297,C298,C299,C300,C301,C302,C303,C304,C305,C306,C307,C308,C309,C310,C311,C312,C313,C314,C315,C316,C317,C318,C319,C320,C321,C322,C323,C324,C325,C326,C327,C328,C329,C330,C331,C332,C333,C334,C335,C336,C337,C338,C339,C340,C341,C342,C343,C344,C345,C346,C347,C348,C349,C350,C351,C352,C353,C354,C355,C356,C357,C358,C359,C360,C361,C362,C363,C364,C365,C366,C367,C368,C369,C370,C371,C372,C373,C374,C375,C376,C377,C378,C379,C380,C381,C382,C383,C384,C385,C386,C387,C388,C389,C390,C391,C392,C393,C394,C395,C396,C397,C398,C399,C400,C401,C402,C403,C404,C405,C406,C407,C408,C409,C410,C411,C412,C413,C414,C415,C416,C417,C418,C419,C420,C421,C422,C423,C424,C425,C426,C427,C428,C429,C430,C431,C432,C433,C434,C435,C436,C437,C438,C439,C440,C441,C442,C443,C444,C445,C446,C447,C448,C449,C450,C451,C452,C453,C454,C455,C456,C457,C458,C459,C460,C461,C462,C463,C464,C465,C466,C467,C468,C469,C470,C471,C472,C473,C474,C475,C476,C477,C478,C479,C480;
